sets/C/cp-n11-k2.vrp
NAME : (null)
COMMENT : (null)
TYPE : CVRP
DIMENSION : 11
EDGE_WEIGHT_TYPE : EUC_2D
CAPACITY : 73
NODE_COORD_SECTION
 1   6   9
 2   9   4
 3   9   8
 4  10   2
 5   1   8
 6   4   4
 7   1   2
 8   9   7
 9   7   0
10   5   8
11   6   7
DEMAND_SECTION
 1   0
 2  20
 3  12
 4  24
 5   1
 6  19
 7   2
 8   8
 9  18
10  21
11   4
DEPOT_SECTION
 1
-1
EOF