sets/C/cp-n11-k2.opt
Route #1: 10 1 3 7 2
Route #2: 9 5 8 6 4
cost 44
